NAME: mp13
TYPE: ATSP
DIMENSION: 13
BEST_KNOWN:
EDGE_WEIGHT_SECTION 
-1 6 10 50 3 68 22 41 70 76 47 38 2 
18 -1 30 90 45 27 35 50 8 66 77 23 20 
89 79 -1 13 78 71 79 78 75 6 46 55 85 
30 100 92 -1 91 78 82 72 7 39 73 39 70 
79 88 39 28 -1 17 25 99 85 89 36 39 55 
57 81 29 97 65 -1 31 33 83 14 52 39 58 
71 83 7 26 47 32 -1 10 91 71 31 43 81 
27 75 17 47 88 44 15 -1 54 5 51 71 49 
16 61 23 4 82 47 36 6 -1 69 24 85 3 
70 83 33 70 63 7 92 5 47 -1 4 43 58 
47 72 85 94 79 90 68 1 78 61 -1 44 45 
38 100 35 6 80 40 25 1 43 79 38 -1 11 
38 20 65 54 34 31 11 10 20 19 13 49 -1 
